(set-logic QF_S)
(set-option :strings-exp true)
(set-option :produce-models true)
(declare-fun sigmaStar_0 () String)
(declare-fun literal_6 () String)
(assert (= literal_6 "\x3c\x64\x69\x76\x20\x63\x6c\x61\x73\x73\x3d\x22\x77\x61\x72\x6e\x69\x6e\x67\x22\x3e\x6e\x6f\x74\x6f\x70\x65\x6e\x75\x6e\x74\x69\x6c\x3a\x20"))
(assert (str.in.re literal_6 (re.++ (re.* re.allchar) (re.++ (str.to.re "\x5c\x3c\x53\x43\x52\x49\x50\x54") (re.* re.allchar)))))
(check-sat)
(get-model)
